40
0 1 0.66 0.09
0 2 0.57 0.21
0 3 0.68 0.15
0 4 0.3 0.24
0 5 0.65 0.24
0 6 0.46 0.22
0 7 0.69 0.06
0 8 0.6 0.16
0 9 0.57 0.1
0 10 0.3 0.23
0 11 0.51 0.12
0 12 0.68 0.22
0 13 0.6 0.24
0 14 0.58 0.22
0 15 0.71 0.19
0 16 0.7 0.1
0 17 0.63 0.2
0 18 0.44 0.13
0 19 0.31 0.2
0 20 0.37 0.04
0 21 0.52 0.19
0 22 0.42 0.23
0 23 0.4 0.2
0 24 0.43 0.06
0 25 0.46 0.23
0 26 0.56 0.06
0 27 0.42 0.2
0 28 0.34 0.16
0 29 0.5 0.21
0 30 0.47 0.11
0 31 0.7 0.2
0 32 0.56 0.08
0 33 0.72 0.24
0 34 0.38 0.14
0 35 0.28 0.16
0 36 0.67 0.23
0 37 0.71 0.18
0 38 0.54 0.22
0 39 0.62 0.24
1 2 0.6 0.25
1 3 0.49 0.24
1 4 0.58 0.25
1 5 0.36 0.27
1 6 0.52 0.23
1 7 0.62 0.12
1 8 0.42 0.2
1 9 0.29 0.16
1 10 0.48 0.22
1 11 0.5 0.16
1 12 0.67 0.13
1 13 0.57 0.24
1 14 0.62 0.24
1 15 0.62 0.21
1 16 0.34 0.16
1 17 0.55 0.22
1 18 0.54 0.18
1 19 0.38 0.21
1 20 0.58 0.1
1 21 0.61 0.1
1 22 0.6 0.15
1 23 0.38 0.17
1 24 0.64 0.12
1 25 0.38 0.14
1 26 0.4 0.1
1 27 0.58 0.18
1 28 0.58 0.17
1 29 0.22 0.16
1 30 0.48 0.02
1 31 0.66 0.2
1 32 0.46 0.14
1 33 0.54 0.2
1 34 0.42 0.23
1 35 0.66 0.1
1 36 0.55 0.22
1 37 0.45 0.22
1 38 0.71 0.26
1 39 0.58 0.32
2 3 0.62 0.33
2 4 0.54 0.26
2 5 0.68 0.2
2 6 0.58 0.23
2 7 0.46 0.19
2 8 0.68 0.22
2 9 0.34 0.15
2 10 0.61 0.27
2 11 0.56 0.09
2 12 0.53 0.2
2 13 0.5 0.22
2 14 0.58 0.19
2 15 0.6 0.16
2 16 0.32 0.23
2 17 0.65 0.17
2 18 0.73 0.34
2 19 0.6 0.28
2 20 0.42 0.17
2 21 0.66 0.23
2 22 0.5 0.18
2 23 0.66 0.2
2 24 0.48 0.15
2 25 0.62 0.27
2 26 0.53 0.19
2 27 0.77 0.13
2 28 0.7 0.26
2 29 0.38 0.27
2 30 0.32 0.25
2 31 0.59 0.21
2 32 0.56 0.13
2 33 0.74 0.12
2 34 0.38 0.26
2 35 0.65 0.33
2 36 0.6 0.24
2 37 0.43 0.15
2 38 0.63 0.18
2 39 0.52 0.26
3 4 0.65 0.24
3 5 0.52 0.14
3 6 0.78 0.3
3 7 0.45 0.21
3 8 0.38 0.12
3 9 0.64 0.24
3 10 0.38 0.08
3 11 0.52 0.26
3 12 0.73 0.28
3 13 0.73 0.28
3 14 0.64 0.28
3 15 0.6 0.2
3 16 0.38 0.23
3 17 0.34 0.18
3 18 0.45 0.24
3 19 0.58 0.06
3 20 0.41 0.19
3 21 0.7 0.3
3 22 0.56 0.26
3 23 0.48 0.16
3 24 0.47 0.21
3 25 0.51 0.13
3 26 0.61 0.21
3 27 0.74 0.2
3 28 0.69 0.21
3 29 0.71 0.14
3 30 0.51 0.22
3 31 0.42 0.21
3 32 0.7 0.23
3 33 0.7 0.22
3 34 0.75 0.22
3 35 0.46 0.14
3 36 0.82 0.23
3 37 0.49 0.2
3 38 0.68 0.16
3 39 0.76 0.25
4 5 0.51 0.22
4 6 0.16 0.14
4 7 0.7 0.22
4 8 0.58 0.28
4 9 0.52 0.23
4 10 0.3 0.16
4 11 0.36 0.19
4 12 0.56 0.22
4 13 0.68 0.31
4 14 0.47 0.22
4 15 0.54 0.12
4 16 0.66 0.26
4 17 0.54 0.27
4 18 0.54 0.37
4 19 0.58 0.3
4 20 0.51 0.2
4 21 0.49 0.25
4 22 0.6 0.2
4 23 0.2 0.08
4 24 0.46 0.22
4 25 0.66 0.29
4 26 0.55 0.18
4 27 0.23 0.18
4 28 0.5 0.29
4 29 0.62 0.22
4 30 0.41 0.23
4 31 0.68 0.31
4 32 0.64 0.21
4 33 0.44 0.14
4 34 0.42 0.11
4 35 0.54 0.31
4 36 0.48 0.26
4 37 0.6 0.21
4 38 0.74 0.2
4 39 0.32 0.18
5 6 0.67 0.23
5 7 0.52 0.24
5 8 0.64 0.15
5 9 0.34 0.25
5 10 0.7 0.07
5 11 0.46 0.22
5 12 0.6 0.14
5 13 0.21 0.14
5 14 0.38 0.25
5 15 0.57 0.15
5 16 0.49 0.2
5 17 0.28 0.23
5 18 0.52 0.19
5 19 0.34 0.08
5 20 0.49 0.26
5 21 0.54 0.17
5 22 0.48 0.12
5 23 0.71 0.15
5 24 0.55 0.26
5 25 0.4 0.14
5 26 0.68 0.25
5 27 0.28 0.14
5 28 0.77 0.29
5 29 0.58 0.13
5 30 0.46 0.25
5 31 0.42 0.22
5 32 0.58 0.24
5 33 0.43 0.08
5 34 0.58 0.16
5 35 0.4 0.28
5 36 0.6 0.2
5 37 0.38 0.23
5 38 0.7 0.02
5 39 0.4 0.21
6 7 0.6 0.2
6 8 0.67 0.26
6 9 0.52 0.13
6 10 0.46 0.28
6 11 0.52 0.14
6 12 0.4 0.17
6 13 0.65 0.24
6 14 0.31 0.24
6 15 0.38 0.21
6 16 0.5 0.2
6 17 0.44 0.22
6 18 0.69 0.34
6 19 0.65 0.31
6 20 0.5 0.18
6 21 0.34 0.14
6 22 0.62 0.19
6 23 0.36 0.22
6 24 0.56 0.17
6 25 0.5 0.24
6 26 0.39 0.16
6 27 0.39 0.1
6 28 0.5 0.2
6 29 0.46 0.22
6 30 0.57 0.21
6 31 0.62 0.26
6 32 0.5 0.15
6 33 0.52 0.15
6 34 0.26 0.16
6 35 0.64 0.28
6 36 0.32 0.24
6 37 0.61 0.2
6 38 0.58 0.21
6 39 0.48 0.26
7 8 0.22 0.11
7 9 0.34 0.08
7 10 0.56 0.22
7 11 0.79 0.1
7 12 0.54 0.21
7 13 0.69 0.22
7 14 0.66 0.2
7 15 0.51 0.17
7 16 0.64 0.04
7 17 0.74 0.14
7 18 0.49 0.18
7 19 0.48 0.26
7 20 0.32 0.02
7 21 0.6 0.18
7 22 0.54 0.2
7 23 0.62 0.19
7 24 0.38 0.04
7 25 0.58 0.22
7 26 0.63 0.04
7 27 0.58 0.14
7 28 0.6 0.22
7 29 0.7 0.19
7 30 0.42 0.1
7 31 0.37 0.18
7 32 0.63 0.06
7 33 0.65 0.22
7 34 0.58 0.2
7 35 0.54 0.18
7 36 0.53 0.17
7 37 0.75 0.12
7 38 0.66 0.26
7 39 0.74 0.3
8 9 0.56 0.18
8 10 0.5 0.2
8 11 0.6 0.14
8 12 0.76 0.24
8 13 0.59 0.29
8 14 0.44 0.21
8 15 0.29 0.2
8 16 0.49 0.15
8 17 0.58 0.22
8 18 0.4 0.12
8 19 0.5 0.18
8 20 0.54 0.12
8 21 0.62 0.22
8 22 0.73 0.26
8 23 0.4 0.21
8 24 0.6 0.14
8 25 0.65 0.25
8 26 0.75 0.1
8 27 0.36 0.24
8 28 0.5 0.14
8 29 0.55 0.2
8 30 0.64 0.2
8 31 0.49 0.26
8 32 0.58 0.16
8 33 0.43 0.23
8 34 0.42 0.27
8 35 0.32 0.22
8 36 0.61 0.14
8 37 0.6 0.08
8 38 0.49 0.17
8 39 0.71 0.32
9 10 0.58 0.22
9 11 0.79 0.06
9 12 0.62 0.19
9 13 0.55 0.14
9 14 0.6 0.16
9 15 0.56 0.13
9 16 0.63 0.12
9 17 0.62 0.14
9 18 0.52 0.23
9 19 0.54 0.28
9 20 0.6 0.06
9 21 0.32 0.17
9 22 0.54 0.17
9 23 0.48 0.15
9 24 0.58 0.04
9 25 0.67 0.22
9 26 0.52 0.08
9 27 0.58 0.22
9 28 0.56 0.23
9 29 0.51 0.19
9 30 0.5 0.14
9 31 0.4 0.18
9 32 0.64 0.02
9 33 0.43 0.18
9 34 0.71 0.21
9 35 0.62 0.22
9 36 0.26 0.23
9 37 0.72 0.12
9 38 0.62 0.24
9 39 0.7 0.31
10 11 0.61 0.19
10 12 0.72 0.21
10 13 0.55 0.21
10 14 0.68 0.27
10 15 0.63 0.12
10 16 0.52 0.26
10 17 0.66 0.16
10 18 0.74 0.26
10 19 0.48 0.14
10 20 0.5 0.21
10 21 0.48 0.24
10 22 0.68 0.19
10 23 0.1 0.08
10 24 0.55 0.21
10 25 0.63 0.21
10 26 0.26 0.19
10 27 0.53 0.21
10 28 0.64 0.28
10 29 0.7 0.06
10 30 0.49 0.23
10 31 0.52 0.29
10 32 0.7 0.21
10 33 0.54 0.15
10 34 0.48 0.14
10 35 0.44 0.22
10 36 0.44 0.15
10 37 0.5 0.21
10 38 0.72 0.09
10 39 0.38 0.17
11 12 0.63 0.15
11 13 0.65 0.2
11 14 0.48 0.1
11 15 0.62 0.07
11 16 0.51 0.14
11 17 0.18 0.08
11 18 0.36 0.25
11 19 0.36 0.22
11 20 0.59 0.08
11 21 0.54 0.18
11 22 0.44 0.17
11 23 0.56 0.11
11 24 0.53 0.06
11 25 0.35 0.18
11 26 0.62 0.1
11 27 0.43 0.2
11 28 0.53 0.17
11 29 0.28 0.19
11 30 0.69 0.16
11 31 0.64 0.12
11 32 0.28 0.04
11 33 0.48 0.2
11 34 0.59 0.17
11 35 0.44 0.24
11 36 0.68 0.22
11 37 0.6 0.06
11 38 0.44 0.2
11 39 0.59 0.27
12 13 0.69 0.28
12 14 0.71 0.24
12 15 0.58 0.21
12 16 0.46 0.2
12 17 0.66 0.15
12 18 0.38 0.24
12 19 0.6 0.22
12 20 0.32 0.19
12 21 0.3 0.03
12 22 0.58 0.02
12 23 0.76 0.25
12 24 0.38 0.19
12 25 0.51 0.19
12 26 0.74 0.21
12 27 0.56 0.15
12 28 0.6 0.26
12 29 0.66 0.18
12 30 0.42 0.11
12 31 0.64 0.11
12 32 0.51 0.17
12 33 0.44 0.08
12 34 0.64 0.28
12 35 0.54 0.19
12 36 0.38 0.2
12 37 0.57 0.21
12 38 0.64 0.14
12 39 0.34 0.24
13 14 0.59 0.3
13 15 0.54 0.27
13 16 0.7 0.24
13 17 0.49 0.28
13 18 0.69 0.28
13 19 0.55 0.22
13 20 0.37 0.2
13 21 0.62 0.26
13 22 0.69 0.26
13 23 0.65 0.29
13 24 0.43 0.18
13 25 0.61 0.22
13 26 0.62 0.22
13 27 0.49 0.14
13 28 0.58 0.37
13 29 0.66 0.27
13 30 0.27 0.22
13 31 0.63 0.3
13 32 0.37 0.16
13 33 0.54 0.22
13 34 0.52 0.3
13 35 0.32 0.3
13 36 0.42 0.32
13 37 0.59 0.22
13 38 0.54 0.16
13 39 0.52 0.35
14 15 0.56 0.17
14 16 0.63 0.24
14 17 0.3 0.18
14 18 0.54 0.31
14 19 0.59 0.32
14 20 0.45 0.18
14 21 0.6 0.27
14 22 0.55 0.22
14 23 0.58 0.19
14 24 0.39 0.16
14 25 0.44 0.28
14 26 0.7 0.2
14 27 0.34 0.24
14 28 0.61 0.07
14 29 0.55 0.27
14 30 0.55 0.22
14 31 0.45 0.22
14 32 0.64 0.14
14 33 0.52 0.28
14 34 0.2 0.13
14 35 0.5 0.15
14 36 0.63 0.32
14 37 0.69 0.16
14 38 0.74 0.27
14 39 0.65 0.23
15 16 0.48 0.21
15 17 0.76 0.15
15 18 0.65 0.3
15 19 0.74 0.23
15 20 0.47 0.15
15 21 0.6 0.24
15 22 0.56 0.19
15 23 0.69 0.04
15 24 0.53 0.13
15 25 0.72 0.25
15 26 0.61 0.17
15 27 0.65 0.27
15 28 0.51 0.24
15 29 0.56 0.18
15 30 0.4 0.19
15 31 0.52 0.19
15 32 0.64 0.11
15 33 0.14 0.13
15 34 0.64 0.1
15 35 0.61 0.27
15 36 0.36 0.2
15 37 0.59 0.13
15 38 0.5 0.13
15 39 0.86 0.2
16 17 0.33 0.1
16 18 0.69 0.14
16 19 0.51 0.27
16 20 0.59 0.06
16 21 0.57 0.22
16 22 0.64 0.22
16 23 0.46 0.21
16 24 0.65 0.08
16 25 0.36 0.2
16 26 0.55 0.08
16 27 0.75 0.1
16 28 0.69 0.26
16 29 0.56 0.21
16 30 0.49 0.14
16 31 0.64 0.22
16 32 0.53 0.1
16 33 0.62 0.25
16 34 0.6 0.24
16 35 0.59 0.19
16 36 0.55 0.13
16 37 0.11 0.08
16 38 0.43 0.22
16 39 0.69 0.31
17 18 0.54 0.24
17 19 0.32 0.17
17 20 0.52 0.16
17 21 0.36 0.12
17 22 0.46 0.17
17 23 0.58 0.19
17 24 0.58 0.14
17 25 0.17 0.1
17 26 0.44 0.18
17 27 0.56 0.2
17 28 0.71 0.25
17 29 0.4 0.11
17 30 0.62 0.2
17 31 0.54 0.18
17 32 0.46 0.12
17 33 0.65 0.23
17 34 0.41 0.25
17 35 0.35 0.28
17 36 0.59 0.2
17 37 0.42 0.14
17 38 0.62 0.22
17 39 0.44 0.33
18 19 0.44 0.27
18 20 0.6 0.17
18 21 0.67 0.27
18 22 0.66 0.26
18 23 0.7 0.33
18 24 0.54 0.19
18 25 0.59 0.29
18 26 0.54 0.19
18 27 0.52 0.24
18 28 0.6 0.26
18 29 0.35 0.26
18 30 0.52 0.2
18 31 0.28 0.24
18 32 0.64 0.21
18 33 0.51 0.23
18 34 0.7 0.27
18 35 0.37 0.28
18 36 0.62 0.22
18 37 0.58 0.2
18 38 0.26 0.17
18 39 0.68 0.25
19 20 0.41 0.24
19 21 0.68 0.25
19 22 0.64 0.2
19 23 0.38 0.22
19 24 0.47 0.25
19 25 0.15 0.07
19 26 0.55 0.26
19 27 0.62 0.21
19 28 0.62 0.27
19 29 0.34 0.2
19 30 0.51 0.23
19 31 0.64 0.15
19 32 0.64 0.26
19 33 0.74 0.16
19 34 0.39 0.24
19 35 0.59 0.2
19 36 0.8 0.28
19 37 0.4 0.26
19 38 0.7 0.1
19 39 0.54 0.29
20 21 0.47 0.16
20 22 0.62 0.19
20 23 0.49 0.17
20 24 0.06 0.02
20 25 0.56 0.2
20 26 0.54 0.02
20 27 0.43 0.16
20 28 0.28 0.2
20 29 0.55 0.17
20 30 0.1 0.08
20 31 0.57 0.16
20 32 0.31 0.04
20 33 0.61 0.2
20 34 0.35 0.18
20 35 0.59 0.16
20 36 0.48 0.19
20 37 0.7 0.14
20 38 0.46 0.25
20 39 0.58 0.28
21 22 0.44 0.05
21 23 0.52 0.23
21 24 0.41 0.18
21 25 0.53 0.22
21 26 0.6 0.18
21 27 0.26 0.12
21 28 0.63 0.23
21 29 0.62 0.18
21 30 0.57 0.08
21 31 0.72 0.14
21 32 0.58 0.19
21 33 0.46 0.11
21 34 0.6 0.29
21 35 0.3 0.16
21 36 0.58 0.23
21 37 0.68 0.24
21 38 0.79 0.17
21 39 0.64 0.27
22 23 0.58 0.23
22 24 0.6 0.17
22 25 0.49 0.21
22 26 0.62 0.21
22 27 0.37 0.17
22 28 0.66 0.28
22 29 0.58 0.2
22 30 0.52 0.13
22 31 0.4 0.13
22 32 0.58 0.15
22 33 0.42 0.06
22 34 0.36 0.26
22 35 0.7 0.21
22 36 0.52 0.18
22 37 0.63 0.23
22 38 0.88 0.12
22 39 0.36 0.22
23 24 0.45 0.15
23 25 0.53 0.24
23 26 0.36 0.19
23 27 0.43 0.26
23 28 0.67 0.26
23 29 0.6 0.14
23 30 0.39 0.15
23 31 0.48 0.23
23 32 0.62 0.13
23 33 0.64 0.17
23 34 0.38 0.06
23 35 0.34 0.23
23 36 0.54 0.23
23 37 0.4 0.13
23 38 0.62 0.17
23 39 0.48 0.16
24 25 0.62 0.18
24 26 0.6 0.04
24 27 0.42 0.18
24 28 0.22 0.2
24 29 0.49 0.15
24 30 0.16 0.1
24 31 0.63 0.14
24 32 0.25 0.02
24 33 0.67 0.18
24 34 0.41 0.2
24 35 0.53 0.18
24 36 0.42 0.2
24 37 0.67 0.12
24 38 0.52 0.24
24 39 0.64 0.3
25 26 0.4 0.2
25 27 0.54 0.14
25 28 0.6 0.22
25 29 0.45 0.21
25 30 0.66 0.16
25 31 0.58 0.08
25 32 0.6 0.2
25 33 0.62 0.18
25 34 0.24 0.18
25 35 0.5 0.24
25 36 0.66 0.28
25 37 0.25 0.23
25 38 0.57 0.12
25 39 0.5 0.28
26 27 0.52 0.18
26 28 0.71 0.22
26 29 0.62 0.19
26 30 0.44 0.1
26 31 0.26 0.18
26 32 0.56 0.06
26 33 0.48 0.22
26 34 0.64 0.2
26 35 0.6 0.18
26 36 0.54 0.21
26 37 0.44 0.16
26 38 0.54 0.27
26 39 0.64 0.3
27 28 0.55 0.3
27 29 0.56 0.27
27 30 0.53 0.16
27 31 0.51 0.22
27 32 0.6 0.2
27 33 0.67 0.22
27 34 0.54 0.26
27 35 0.46 0.24
27 36 0.38 0.23
27 37 0.64 0.18
27 38 0.63 0.16
27 39 0.55 0.35
28 29 0.44 0.22
28 30 0.38 0.15
28 31 0.68 0.22
28 32 0.47 0.21
28 33 0.58 0.26
28 34 0.58 0.2
28 35 0.62 0.08
28 36 0.58 0.28
28 37 0.58 0.22
28 38 0.68 0.31
28 39 0.72 0.3
29 30 0.6 0.18
29 31 0.5 0.29
29 32 0.56 0.17
29 33 0.64 0.21
29 34 0.54 0.14
29 35 0.72 0.26
29 36 0.58 0.21
29 37 0.53 0.25
29 38 0.5 0.15
29 39 0.56 0.23
30 31 0.47 0.22
30 32 0.41 0.12
30 33 0.54 0.19
30 34 0.45 0.21
30 35 0.49 0.08
30 36 0.58 0.24
30 37 0.6 0.22
30 38 0.56 0.25
30 39 0.48 0.3
31 32 0.66 0.16
31 33 0.62 0.19
31 34 0.65 0.26
31 35 0.42 0.17
31 36 0.55 0.31
31 37 0.7 0.18
31 38 0.54 0.2
31 39 0.61 0.35
32 33 0.76 0.16
32 34 0.66 0.19
32 35 0.28 0.2
32 36 0.5 0.22
32 37 0.42 0.1
32 38 0.59 0.22
32 39 0.52 0.29
33 34 0.56 0.23
33 35 0.74 0.27
33 36 0.5 0.12
33 37 0.67 0.26
33 38 0.58 0.06
33 39 0.73 0.16
34 35 0.66 0.22
34 36 0.58 0.28
34 37 0.49 0.19
34 38 0.59 0.18
34 39 0.72 0.1
35 36 0.74 0.32
35 37 0.48 0.27
35 38 0.55 0.3
35 39 0.46 0.22
36 37 0.48 0.16
36 38 0.36 0.18
36 39 0.72 0.18
37 38 0.32 0.25
37 39 0.75 0.29
38 39 0.54 0.22
